(set-logic ALL)
(declare-fun var0 () String)
(assert (str.in_re var0 (re.++ (re.union (re.+ (re.+ (re.union (re.union (re.+ (re.* (re.union (re.+ (re.union (re.union (str.to_re "000") (str.to_re "111")) (re.union (str.to_re "22") (str.to_re "3")))) (re.+ (re.union (re.* (str.to_re "4")) (re.* (str.to_re "55"))))))) (re.+ (re.* (re.+ (re.* (re.* (re.+ (str.to_re "66")))))))) (re.union (re.+ (re.union (re.union (re.+ (re.union (re.* (str.to_re "77")) (re.* (str.to_re "88")))) (re.+ (re.* (re.union (str.to_re "999") (str.to_re "aa"))))) (re.union (re.union (re.union (re.union (str.to_re "b") (str.to_re "cc")) (re.union (str.to_re "ddd") (str.to_re "ee"))) (re.union (re.+ (str.to_re "f")) (re.+ (str.to_re "g")))) (re.union (re.union (re.+ (str.to_re "hhh")) (re.+ (str.to_re "iii"))) (re.union (re.* (str.to_re "j")) (re.* (str.to_re "kkk"))))))) (re.+ (re.union (re.+ (re.* (re.union (re.union (str.to_re "lll") (str.to_re "mmm")) (re.union (str.to_re "nnn") (str.to_re "ooo"))))) (re.+ (re.union (re.union (re.* (str.to_re "p")) (re.* (str.to_re "q"))) (re.union (re.union (str.to_re "rr") (str.to_re "s")) (re.union (str.to_re "tt") (str.to_re "uu"))))))))))) (re.+ (re.* (re.+ (re.* (re.+ (re.* (re.union (re.union (re.+ (re.+ (str.to_re "vv"))) (re.+ (re.+ (str.to_re "www")))) (re.union (re.union (re.union (str.to_re "x") (str.to_re "y")) (re.union (str.to_re "z") (str.to_re "A"))) (re.union (re.* (str.to_re "BB")) (re.* (str.to_re "CC")))))))))))) (re.+ (re.union (re.union (re.+ (re.* (re.+ (re.* (re.* (re.* (re.+ (re.+ (str.to_re "DDD"))))))))) (re.+ (re.union (re.* (re.* (re.* (re.+ (re.union (re.* (str.to_re "EE")) (re.* (str.to_re "F"))))))) (re.* (re.* (re.union (re.* (re.+ (re.* (str.to_re "G")))) (re.* (re.+ (re.+ (str.to_re "HHH")))))))))) (re.union (re.union (re.+ (re.union (re.* (re.+ (re.union (re.* (re.* (str.to_re "III"))) (re.* (re.+ (str.to_re "JJ")))))) (re.* (re.union (re.union (re.union (re.union (str.to_re "K") (str.to_re "L")) (re.union (str.to_re "MMM") (str.to_re "N"))) (re.union (re.+ (str.to_re "OO")) (re.+ (str.to_re "P")))) (re.union (re.* (re.union (str.to_re "QQ") (str.to_re "RR"))) (re.* (re.union (str.to_re "SS") (str.to_re "T")))))))) (re.+ (re.union (re.union (re.union (re.+ (re.+ (re.+ (str.to_re "UU")))) (re.+ (re.+ (re.union (str.to_re "VVV") (str.to_re "W"))))) (re.union (re.* (re.union (re.+ (str.to_re "X")) (re.+ (str.to_re "Y")))) (re.* (re.union (re.union (str.to_re "ZZ") (str.to_re "!!")) (re.union (str.to_re """") (str.to_re "#")))))) (re.union (re.* (re.+ (re.+ (re.union (str.to_re "$$") (str.to_re "%%"))))) (re.* (re.+ (re.* (re.+ (str.to_re "&&&"))))))))) (re.union (re.+ (re.+ (re.union (re.union (re.+ (re.* (re.* (str.to_re "'")))) (re.+ (re.* (re.* (str.to_re "((("))))) (re.union (re.union (re.* (re.+ (str.to_re ")))"))) (re.* (re.* (str.to_re "***")))) (re.union (re.* (re.* (str.to_re "+"))) (re.* (re.+ (str.to_re ",,,")))))))) (re.+ (re.+ (re.* (re.union (re.+ (re.+ (re.+ (str.to_re "--")))) (re.+ (re.+ (re.* (str.to_re "..")))))))))))))))
(assert (<= 15 (str.len var0)))
(check-sat)